pMedian	pDispersion
7690.0	164.0
7671.0	161.0
7543.0	159.0
7142.0	154.0
5338.0	128.0
5327.0	127.0
5365.0	130.0
4797.0	117.0
5702.0	142.0
5844.0	148.0
5990.0	150.0
7346.0	158.0
4548.0	90.0
5485.0	136.0
5569.0	137.0
4836.0	120.0
5677.0	141.0
5632.0	138.0
5439.0	134.0
4268.0	70.0
4994.0	121.0
4617.0	103.0
4430.0	85.0
4654.0	110.0
5024.0	122.0
4474.0	89.0
4288.0	73.0
4413.0	80.0
4303.0	78.0
4697.0	111.0
4250.0	38.0
4738.0	113.0
4560.0	93.0
